
  25    0


   0  13 2 3 5 6 7 8 9 10 11 21 22 23 24 
   9   6 20 17 16 15 14 13 
   6   2 14 4 
   4   2 13 12 
   2   2 15 14 
   1   2 19 14 
   4   2 17 15 
   8   2 16 12 
   9   2 13 12 
   6   2 13 12 
   1   1 18 
   6   1 25
   3   1 25
  10   1 25
   4   1 25
   8   1 25
   6   1 25
   4   1 25
   5   1 25
   6   1 25
   7   1 25
   6   1 25
   8   1 25
  10   1 25
   0   0 
